(set-option :produce-models true)
(set-logic QF_UF)
(declare-fun p24() Bool)
(declare-fun p18() Bool)
(declare-fun p16() Bool)
(declare-fun p23() Bool)
(declare-fun p11() Bool)
(declare-fun p7() Bool)
(declare-fun p5() Bool)
(declare-fun p13() Bool)
(declare-fun p6() Bool)
(declare-fun p10() Bool)
(declare-fun p12() Bool)
(declare-fun p9() Bool)
(declare-fun p2() Bool)
(declare-fun p1() Bool)
(declare-fun p4() Bool)
(declare-fun p0() Bool)
(declare-fun p8() Bool)
(declare-fun p21() Bool)
(declare-fun p22() Bool)
(declare-fun p15() Bool)
(declare-fun p17() Bool)
(declare-fun p20() Bool)
(declare-fun p14() Bool)
(declare-fun p3() Bool)
(declare-fun p19() Bool)
(assert
(and (or p24 p18 (not p16)) (or p23 p11 p7) (or p5 p16 (not p13)) (or (not p6) (not p24) (not p7)) (or (not p7) (not p10) p7) (or p12 (not p9) (not p11)) (or p2 p1 p1) (or p11 p10 p1) (or (not p4) p0 (not p10)) (or (not p1) (not p8) p4) (or (not p21) (not p0) (not p2)) (or (not p22) (not p23) p11) (or (not p15) (not p17) (not p23)) (or (not p23) p21 (not p0)) (or p20 (not p14) (not p6)) (or p22 (not p14) p5) (or p2 (not p15) (not p15)) (or p13 (not p11) p4) (or (not p2) p10 (not p12)) (or (not p4) (not p23) p14) (or p23 p16 p18) (or (not p10) p22 (not p20)) (or p2 p11 (not p9)) (or (not p23) p13 (not p20)) (or (not p15) (not p16) (not p11)) (or (not p14) (not p22) (not p12)) (or p14 p9 (not p23)) (or p16 (not p12) p2) (or p0 (not p12) (not p3)) (or p19 p14 p15) (or p12 (not p8) p13) (or (not p22) (not p5) (not p13)) (or p4 (not p8) (not p23)) (or p17 (not p15) (not p18)) (or (not p16) p18 (not p1)) (or p12 p18 (not p19)) (or p14 (not p10) (not p5)) (or (not p3) (not p3) (not p13)) (or (not p10) (not p4) p3) (or (not p19) (not p21) (not p6)) (or (not p11) p8 (not p12)) (or p11 (not p13) (not p16)) (or p6 (not p2) (not p16)) (or (not p14) p0 (not p21)) (or (not p16) (not p0) p6) (or p20 p11 p4) (or p0 p6 (not p16)) (or p22 (not p16) p1) (or p1 p16 (not p2)) (or p3 p2 (not p2)) (or (not p17) (not p12) p24) (or (not p3) (not p8) (not p16)) (or p24 (not p24) (not p15)) (or p5 (not p5) (not p21)) (or p5 p0 (not p17)) (or p24 (not p0) p6) (or p13 p10 p19) (or p22 p21 (not p1)) (or (not p1) (not p22) (not p5)) (or p16 (not p16) (not p13)) (or (not p9) p18 (not p17)) (or (not p7) p6 p24) (or p14 p23 p5) (or p19 (not p12) (not p11)) (or p18 (not p11) (not p8)) (or (not p6) (not p0) p24) (or p22 (not p21) p13) (or (not p20) (not p18) (not p0)) (or p5 p17 (not p6)) (or p1 (not p23) p15) (or (not p18) p12 (not p22)) (or p3 (not p23) (not p6)) (or p1 p8 p5) (or p9 p0 p1) (or (not p8) p5 (not p22)) (or (not p11) (not p22) p13) (or p3 p5 p9) (or p9 p20 p8) (or (not p0) (not p12) (not p17)) (or p20 p14 p0) (or p3 (not p14) (not p7)) (or p9 p10 (not p23)) (or (not p24) (not p22) p17) (or (not p14) (not p1) (not p17)) (or (not p6) p13 p10) (or (not p7) (not p9) p21) (or p6 p21 p19) (or (not p8) p0 p9) (or (not p22) (not p0) (not p18)) (or p11 p14 p9) (or (not p8) (not p13) p12) (or (not p14) (not p7) p3) (or p21 (not p12) p15) (or (not p4) p23 p3) (or p11 (not p20) p21) (or p21 (not p21) (not p6)) (or p15 p6 (not p19)) (or (not p20) p0 p13) (or (not p24) p13 (not p22)) (or (not p8) p14 p18) (or (not p5) p19 (not p21)) (or p7 (not p13) (not p0)) (or p2 p1 (not p19)) (or (not p0) p14 p4) (or (not p4) p12 p17) (or p17 p17 p23) (or p23 (not p19) (not p22)))
)
(check-sat)
(get-model)
